job_count = 10 ;
duration = [|4, 16, 4, 9|24, 5, 15, 3|21, 13, 14, 4|26, 24, 5, 4|10, 23, 18, 2|4, 27, 4, 2|4, 17, 12, 4|5, 19, 3, 5|37, 4, 3, 9|9, 8, 2, 6|] ;
machine_count = 4 ;
cost = [|17, 30, 44, 78|18, 35, 56, 59|16, 26, 44, 53|11, 27, 39, 74|19, 22, 30, 71|16, 29, 39, 65|12, 28, 55, 56|12, 33, 50, 74|12, 23, 56, 45|13, 30, 52, 70|] ;
deadline = [21, 21, 21, 21, 21, 21, 21, 21, 21, 21] ;
release = [0, 0, 0, 0, 0, 0, 0, 0, 0, 0] ;
resource = [|2, 2, 2, 2|1, 1, 1, 1|8, 8, 8, 8|6, 6, 6, 6|5, 5, 5, 5|3, 3, 3, 3|1, 1, 1, 1|8, 8, 8, 8|6, 6, 6, 6|7, 7, 7, 7|] ;
capacities = [10, 10, 10, 10] ;
